Name : 7i45-18
DIMENSION : 45
NUMBER_OF_CLUSTERS: 7
NODE_COORD_SECTION
1 694  704
2 405  220
3 812  1179
4 750  380
5 1078  771
6 1035  1088
7 877  251
8 601  -153
9 478  51
10 582  282
11 963  606
12 520  296
13 1021  542
14 845  975
15 728  113
16 595  88
17 679  138
18 1160  529
19 1155  751
20 1004  974
21 675  347
22 764  549
23 452  350
24 386  726
25 745  971
26 733  680
27 832  245
28 744  1214
29 896  612
30 218  63
31 801  76
32 355  1200
33 767  1122
34 870  1305
35 585  588
36 446  587
37 760  690
38 551  466
39 723  12
40 460  102
41 805  310
42 611  569
43 858  123
44 213  107
45 886  430	
CLUSTER_SECTION:
1 24 -1
2 4 -1
3 17 31 43 -1
4 3 14 -1
5 7 -1
6 1 -1
7 2 8 9 39 40 -1
